1	1	5
3	3	4	4	5	5	2	8	8	
4	4	5	5	1	1	3	9	9	
5	5	1	1	2	2	4	10	10	
1	1	2	2	3	3	5	11	11	
2	2	3	3	4	4	1	12	12	

1	2	6
2	2	3	3	4	4	1	13	13	
3	3	4	4	6	6	2	8	8	
4	4	6	6	1	1	3	9	9	
6	6	1	1	2	2	4	10	10	
1	1	2	2	3	3	6	11	11	

1	3	7
1	1	2	2	3	3	7	11	11	
2	2	3	3	4	4	1	14	14	
3	3	4	4	7	7	2	8	8	
4	4	7	7	1	1	3	9	9	
7	7	1	1	2	2	4	10	10	

